# Solution for model cur_assignment
# Objective value = 5.7256263991584763e+02
Assign[0,0] 0
Assign[0,1] 1
Assign[0,2] 0
Assign[1,0] 0
Assign[1,1] 0
Assign[1,2] 1
Assign[2,0] 0
Assign[2,1] 0
Assign[2,2] 1
Assign[3,0] 0
Assign[3,1] 0
Assign[3,2] 1
Assign[4,0] 0
Assign[4,1] 0
Assign[4,2] 1
Assign[5,0] 0
Assign[5,1] 0
Assign[5,2] 1
Assign[6,0] 1
Assign[6,1] 0
Assign[6,2] 0
Assign[7,0] 0
Assign[7,1] 0
Assign[7,2] 1
Assign[8,0] 0
Assign[8,1] 1
Assign[8,2] 0
Assign[9,0] 0
Assign[9,1] 1
Assign[9,2] 0
Assign[10,0] 0
Assign[10,1] 1
Assign[10,2] 0
Assign[11,0] 1
Assign[11,1] 0
Assign[11,2] 0
Assign[12,0] 0
Assign[12,1] 1
Assign[12,2] 0
Assign[13,0] 0
Assign[13,1] 1
Assign[13,2] 0
Assign[14,0] 1
Assign[14,1] 0
Assign[14,2] 0
Assign[15,0] 1
Assign[15,1] 0
Assign[15,2] 0
Assign[16,0] 0
Assign[16,1] 0
Assign[16,2] 1
Assign[17,0] 0
Assign[17,1] 0
Assign[17,2] 1
Assign[18,0] 0
Assign[18,1] 0
Assign[18,2] 1
Assign[19,0] 0
Assign[19,1] 0
Assign[19,2] 1
Assign[20,0] 0
Assign[20,1] 0
Assign[20,2] 1
Assign[21,0] 0
Assign[21,1] 0
Assign[21,2] 1
Assign[22,0] 1
Assign[22,1] 0
Assign[22,2] 0
Assign[23,0] 1
Assign[23,1] 0
Assign[23,2] 0
Assign[24,0] 1
Assign[24,1] 0
Assign[24,2] 0
Assign[25,0] 1
Assign[25,1] 0
Assign[25,2] 0
Assign[26,0] 1
Assign[26,1] 0
Assign[26,2] 0
Assign[27,0] 1
Assign[27,1] 0
Assign[27,2] 0
Assign[28,0] 0
Assign[28,1] 1
Assign[28,2] 0
Assign[29,0] 0
Assign[29,1] 1
Assign[29,2] 0
Assign[30,0] 0
Assign[30,1] 1
Assign[30,2] 0
Assign[31,0] 0
Assign[31,1] 1
Assign[31,2] 0
Assign[32,0] 0
Assign[32,1] 0
Assign[32,2] 1
Assign[33,0] 0
Assign[33,1] 0
Assign[33,2] 1
Assign[34,0] 1
Assign[34,1] 0
Assign[34,2] 0
Assign[35,0] 1
Assign[35,1] 0
Assign[35,2] 0
Assign[36,0] 1
Assign[36,1] 0
Assign[36,2] 0
Assign[37,0] 1
Assign[37,1] 0
Assign[37,2] 0
Assign[38,0] 1
Assign[38,1] 0
Assign[38,2] 0
Assign[39,0] 1
Assign[39,1] 0
Assign[39,2] 0
Assign[40,0] 1
Assign[40,1] 0
Assign[40,2] 0
Assign[41,0] 1
Assign[41,1] 0
Assign[41,2] 0
Assign[42,0] 0
Assign[42,1] 0
Assign[42,2] 1
Assign[43,0] 0
Assign[43,1] 0
Assign[43,2] 1
Assign[44,0] 0
Assign[44,1] 0
Assign[44,2] 1
Assign[45,0] 0
Assign[45,1] 0
Assign[45,2] 1
Assign[46,0] 1
Assign[46,1] 0
Assign[46,2] 0
Assign[47,0] 0
Assign[47,1] 0
Assign[47,2] 1
Assign[48,0] 0
Assign[48,1] 0
Assign[48,2] 1
Assign[49,0] 1
Assign[49,1] 0
Assign[49,2] 0
Assign[50,0] 1
Assign[50,1] 0
Assign[50,2] 0
Assign[51,0] 0
Assign[51,1] 1
Assign[51,2] 0
Assign[52,0] 0
Assign[52,1] 1
Assign[52,2] 0
Assign[53,0] 0
Assign[53,1] 1
Assign[53,2] 0
Assign[54,0] 0
Assign[54,1] 1
Assign[54,2] 0
Assign[55,0] 0
Assign[55,1] 0
Assign[55,2] 1
Assign[56,0] 0
Assign[56,1] 1
Assign[56,2] 0
Assign[57,0] 1
Assign[57,1] 0
Assign[57,2] 0
Assign[58,0] 0
Assign[58,1] 0
Assign[58,2] 1
Assign[59,0] 0
Assign[59,1] 0
Assign[59,2] 1
Assign[60,0] 1
Assign[60,1] 0
Assign[60,2] 0
Assign[61,0] 1
Assign[61,1] 0
Assign[61,2] 0
Assign[62,0] 1
Assign[62,1] 0
Assign[62,2] 0
Assign[63,0] 0
Assign[63,1] 1
Assign[63,2] 0
Assign[64,0] 0
Assign[64,1] 1
Assign[64,2] 0
Assign[65,0] 0
Assign[65,1] 0
Assign[65,2] 1
Assign[66,0] 0
Assign[66,1] 0
Assign[66,2] 1
Assign[67,0] 1
Assign[67,1] 0
Assign[67,2] 0
Assign[68,0] 1
Assign[68,1] 0
Assign[68,2] 0
Assign[69,0] 1
Assign[69,1] 0
Assign[69,2] 0
Assign[70,0] 0
Assign[70,1] 1
Assign[70,2] 0
Assign[71,0] 0
Assign[71,1] 1
Assign[71,2] 0
Assign[72,0] 1
Assign[72,1] 0
Assign[72,2] 0
Assign[73,0] 1
Assign[73,1] 0
Assign[73,2] 0
Assign[74,0] 1
Assign[74,1] 0
Assign[74,2] 0
Assign[75,0] 0
Assign[75,1] 0
Assign[75,2] 1
Assign[76,0] 0
Assign[76,1] 0
Assign[76,2] 1
Assign[77,0] 0
Assign[77,1] 0
Assign[77,2] 1
Assign[78,0] 1
Assign[78,1] 0
Assign[78,2] 0
Assign[79,0] 1
Assign[79,1] 0
Assign[79,2] 0
Assign[80,0] 1
Assign[80,1] 0
Assign[80,2] 0
Assign[81,0] 0
Assign[81,1] 1
Assign[81,2] 0
Assign[82,0] 1
Assign[82,1] 0
Assign[82,2] 0
Assign[83,0] 0
Assign[83,1] 1
Assign[83,2] 0
Assign[84,0] 0
Assign[84,1] 0
Assign[84,2] 1
Assign[85,0] 1
Assign[85,1] 0
Assign[85,2] 0
Assign[86,0] 1
Assign[86,1] 0
Assign[86,2] 0
Assign[87,0] 1
Assign[87,1] 0
Assign[87,2] 0
Assign[88,0] 0
Assign[88,1] 0
Assign[88,2] 1
Assign[89,0] 1
Assign[89,1] 0
Assign[89,2] 0
Assign[90,0] 1
Assign[90,1] 0
Assign[90,2] 0
Assign[91,0] 0
Assign[91,1] 1
Assign[91,2] 0
Assign[92,0] 0
Assign[92,1] 1
Assign[92,2] 0
Assign[93,0] 0
Assign[93,1] 1
Assign[93,2] 0
Assign[94,0] 0
Assign[94,1] 0
Assign[94,2] 1
Assign[95,0] 0
Assign[95,1] 1
Assign[95,2] 0
Assign[96,0] 0
Assign[96,1] 0
Assign[96,2] 1
Assign[97,0] 0
Assign[97,1] 0
Assign[97,2] 1
Assign[98,0] 0
Assign[98,1] 0
Assign[98,2] 1
Assign[99,0] 0
Assign[99,1] 0
Assign[99,2] 1
Assign[100,0] 1
Assign[100,1] 0
Assign[100,2] 0
Assign[101,0] 0
Assign[101,1] 1
Assign[101,2] 0
Assign[102,0] 1
Assign[102,1] 0
Assign[102,2] 0
Assign[103,0] 1
Assign[103,1] 0
Assign[103,2] 0
Assign[104,0] 0
Assign[104,1] 0
Assign[104,2] 1
Assign[105,0] 0
Assign[105,1] 0
Assign[105,2] 1
Assign[106,0] 0
Assign[106,1] 0
Assign[106,2] 1
Assign[107,0] 1
Assign[107,1] 0
Assign[107,2] 0
Assign[108,0] 0
Assign[108,1] 1
Assign[108,2] 0
Assign[109,0] 0
Assign[109,1] 0
Assign[109,2] 1
Assign[110,0] 0
Assign[110,1] 1
Assign[110,2] 0
Assign[111,0] 0
Assign[111,1] 1
Assign[111,2] 0
Assign[112,0] 0
Assign[112,1] 1
Assign[112,2] 0
Assign[113,0] 1
Assign[113,1] 0
Assign[113,2] 0
Assign[114,0] 1
Assign[114,1] 0
Assign[114,2] 0
Assign[115,0] 0
Assign[115,1] 0
Assign[115,2] 1
Assign[116,0] 0
Assign[116,1] 0
Assign[116,2] 1
Assign[117,0] 1
Assign[117,1] 0
Assign[117,2] 0
Assign[118,0] 0
Assign[118,1] 0
Assign[118,2] 1
Assign[119,0] 0
Assign[119,1] 0
Assign[119,2] 1
Assign[120,0] 0
Assign[120,1] 0
Assign[120,2] 1
Assign[121,0] 1
Assign[121,1] 0
Assign[121,2] 0
Assign[122,0] 0
Assign[122,1] 0
Assign[122,2] 1
Assign[123,0] 1
Assign[123,1] 0
Assign[123,2] 0
Assign[124,0] 0
Assign[124,1] 1
Assign[124,2] 0
Assign[125,0] 1
Assign[125,1] 0
Assign[125,2] 0
Assign[126,0] 0
Assign[126,1] 0
Assign[126,2] 1
Assign[127,0] 0
Assign[127,1] 0
Assign[127,2] 1
Assign[128,0] 0
Assign[128,1] 1
Assign[128,2] 0
Assign[129,0] 0
Assign[129,1] 1
Assign[129,2] 0
Assign[130,0] 1
Assign[130,1] 0
Assign[130,2] 0
Assign[131,0] 0
Assign[131,1] 0
Assign[131,2] 1
Assign[132,0] 0
Assign[132,1] 0
Assign[132,2] 1
Assign[133,0] 0
Assign[133,1] 0
Assign[133,2] 1
Assign[134,0] 1
Assign[134,1] 0
Assign[134,2] 0
Assign[135,0] 0
Assign[135,1] 1
Assign[135,2] 0
Assign[136,0] 0
Assign[136,1] 1
Assign[136,2] 0
